10
Source-derived Cartesian centres and explicit atoms
X 0.58868651295181129 -1.1347076312890596 0.41976561898072945
X 0.84103104501076698 -1.5160101020421859 1.1386787410838197
X -0.94996864270005643 0.17615818166150229 -0.29644238063123224
X -1.7689495383398925 0.04907111049310342 -0.098748406078335113
X -3.9014718410837368 1.4693651080666352 -0.21578968135217663
X -4.1537736915323578 1.8506434962603353 -0.93469365165089724
X -2.3627414528001496 0.15845763848095495 0.50043995837932942
X -1.5437790489452481 0.28555426411115808 0.30273479179036877
Si -2.9904790130186574 0.9410349158390614 -0.086839055857492978
Si -0.32233434056022181 -0.60634322712118871 0.29080184891127975
