10
Source-derived Cartesian centres and explicit atoms
X -1.1231712256974355 1.2666130401103899 1.5795627047528544
X -2.7897552987707921 1.0309634407795367 1.0094711352498675
X -2.2533967247138493 2.1417752124121696 1.7147131145589838
X -1.8951115011455288 1.2191053814735193 0.23875933943327474
X -5.5206687569951622 1.9960356523128007 -0.60862842967772179
X -3.8540587760545391 2.2316808349785306 -0.038516543698158288
X -4.3904241071123309 1.1208693793922893 -0.74374449210298621
X -4.7486864301734908 2.0435366036550491 0.73220264690441161
Si -2.0154012367193173 1.414634934427992 1.1356270816996534
Si -4.6285015522525912 1.8480498698435255 -0.16467442967590584
