12
Source-derived Cartesian centres and explicit atoms
X 0.7461656395738826 -1.431795282022184 4.6460007008380746
X 1.0229607799941494 -1.8995713194683543 4.331423545213049
X 1.724544570661273 -1.6038609572549254 4.3104292801936053
X 0.96574240525880861 -1.9617376546858991 5.1003990909373726
X 0.36342306110819611 -0.82921964742384813 3.9875075855060826
X 1.2626431713469126 -1.3613386414172013 4.14895935022221
X 0.85561403622430998 -1.1872368037494585 3.7256607285278793
X 0.6409628147198575 -1.2336362349141623 4.2149520504166995
X 0.28786127855512583 -0.76520491451428707 4.6854367443623204
X 1.5251416956097887 -1.5534537225379668 4.412635242995659
Bi 1.5174479018248612 -3.1278534694774511 6.9487327577215137
Bi 0.73503535231181105 0.15839597279426026 1.7622309809869883
