12
Source-derived Cartesian centres and explicit atoms
X 1.2513988079425857 -0.099387503244744144 -0.14979567892270132
X 1.8276244393067376 -0.79450503780572779 -0.042220955859509683
X 1.5406111001537954 0.064321720848409064 0.24475038711119437
X 0.96129378304978641 -0.71304358765998321 0.3417052045031741
X 1.7775376799523999 0.48600871075289692 -0.85328293359177754
X 1.6939620798210904 0.15995508833325345 -0.14941455961304731
X 2.1848124487219587 0.10181133901535551 -0.63192274270810656
X 1.674759936615692 0.044824766248605812 -0.4811791042221783
X 0.92906256509825913 0.74251394708334406 -0.54899342385603023
X 1.4329705570342874 0.065256669214746196 0.17783514975240278
Bi 3.7910720495517256 1.6745007359699509 -2.0655306580753372
Bi -0.69877819444899147 -1.7899557905827206 1.8993065766776509
