12
Source-derived Cartesian centres and explicit atoms
X 1.7032060291558215 1.2541582866599303 -0.73956880244470335
X 2.2847290942855993 0.94386175169006703 -0.9300315193512404
X 2.7355118520114439 1.3501581335142976 -0.585933368636539
X 1.7807121098636689 0.65540630880229112 -0.33057673118152098
X 1.6006717416585841 1.953076339688536 -1.3829563628422747
X 2.3903003053576737 1.5501350473759321 -0.9017361177455866
X 2.276620982622001 1.7687423720315107 -1.4166123967559741
X 1.8200105542547313 1.5486966700598905 -1.1183805444840682
X 1.0812607043586993 1.8022897291744353 -0.834593526406187
X 2.4983644261460642 1.3355865423489399 -0.58744252833568766
Bi 1.4725411759171649 -0.89276096432966756 1.3002797430798707
Bi 2.926667035220651 3.5936499839948404 -2.9205180473236303
