16
Source-derived Cartesian centres and explicit atoms
X -3.147467433093758 0.27691529614533705 3.1076329682790975
X -3.147467433093758 0.27691529614533705 3.1076329682790975
X -3.147467433093758 0.27691529614533705 3.1076329682790975
X -3.147467433093758 0.27691529614533705 3.1076329682790975
X -4.0624511038429745 -0.090175377182965824 5.8706648385211926
X -4.0624511038429745 -0.090175377182965824 5.8706648385211926
X -4.0624511038429745 -0.090175377182965824 5.8706648385211926
X -3.147467433093758 0.27691529614533705 3.1076329682790975
X -3.147467433093758 0.27691529614533705 3.1076329682790975
X -3.147467433093758 0.27691529614533705 3.1076329682790975
X -3.147467433093758 0.27691529614533705 3.1076329682790975
X -4.0624511038429745 -0.090175377182965824 5.8706648385211926
X -4.0624511038429745 -0.090175377182965824 5.8706648385211926
X -4.0624511038429745 -0.090175377182965824 5.8706648385211926
In -3.147467433093758 0.27691529614533705 3.1076329682790975
As -4.0624511038429745 -0.090175377182965824 5.8706648385211926
