10
Source-derived Cartesian centres and explicit atoms
X 4.0914811977007686 -0.45525376820356134 -1.8738716359185053
X 5.1796903233864473 -0.35612021745504441 -1.3073092652165876
X 4.1106748867190275 0.40215424371917557 -0.54074147990314103
X 3.7092279690414172 -0.75992811244448477 -0.5990428705174331
X 4.9850334470758106 0.34792991657927008 2.0378337867345362
X 3.8968248387876585 0.24879422952059965 1.4712418025010032
X 4.9658557593030253 -0.5094732229838721 0.70466393205434663
X 5.3672830094519375 0.65259917239224452 0.76296212168950328
Si 4.8037584136500371 0.18498388439058902 1.2442137057271849
Si 4.2727790732175261 -0.29226348298716104 -1.0802037755423131
