10
Source-derived Cartesian centres and explicit atoms
X 1.1293404837029613 -0.63085405100061953 1.2219860494218553
X 0.47393138902901744 -1.3620319790569688 1.9742459692883179
X 0.40676257778618247 -0.039872899655905167 2.4246680253235771
X -0.13029279464686361 0.12918116272060987 1.3232862661409588
X -2.1208209257738195 0.13290638202816865 3.7556837798344236
X -1.4653863031341559 0.86407269919216212 3.0034108013049683
X -1.3982071752687089 -0.45810266419060708 2.5529967332903012
X -0.86115099867082057 -0.62714206204392631 3.654361245175179
Si 0.46991287810321597 -0.47588659417657325 1.7360840563759206
Si -1.4614155406946674 -0.022057416023283715 3.2416486996224596
