16
Source-derived Cartesian centres and explicit atoms
X -0.49406530692157419 -1.966362106832394 -0.54106082662261712
X -0.49406530692157419 -1.966362106832394 -0.54106082662261712
X -0.49406530692157419 -1.966362106832394 -0.54106082662261712
X -0.49406530692157419 -1.966362106832394 -0.54106082662261712
X -0.5623643500721347 -4.6065877453233934 -2.6156165005288874
X -0.5623643500721347 -4.6065877453233934 -2.6156165005288874
X -0.5623643500721347 -4.6065877453233934 -2.6156165005288874
X -0.49406530692157419 -1.966362106832394 -0.54106082662261712
X -0.49406530692157419 -1.966362106832394 -0.54106082662261712
X -0.49406530692157419 -1.966362106832394 -0.54106082662261712
X -0.49406530692157419 -1.966362106832394 -0.54106082662261712
X -0.5623643500721347 -4.6065877453233934 -2.6156165005288874
X -0.5623643500721347 -4.6065877453233934 -2.6156165005288874
X -0.5623643500721347 -4.6065877453233934 -2.6156165005288874
As -0.5623643500721347 -4.6065877453233934 -2.6156165005288874
In -0.49406530692157419 -1.966362106832394 -0.54106082662261712
