12
Source-derived Cartesian centres and explicit atoms
X -0.70305832488520859 -2.3005516382113385 2.4491458218816913
X -1.4116595801771605 -2.7918705623339575 2.1712899191246491
X -0.46054391364174602 -2.7145293145051035 2.2359753842226726
X -0.95946862212746864 -2.9204392925868485 2.9636287147303642
X -0.62149162924196977 -1.5406445525436012 1.6990896781552114
X -0.5843428379682869 -2.3297190218507904 2.0004184262104903
X -0.96535917200200982 -1.9968009837488399 1.5020605183040907
X -0.82399984092548795 -2.032676290724202 1.9825334999366644
X -0.053946902632357963 -1.5357678515294662 2.412041288205502
X -0.46186949730591359 -2.6193520458834394 2.3141458156528669
Bi -0.82421050679179497 -4.399797882798727 4.985856010821812
Bi -0.59728436695485476 -0.46054651769175803 -0.5864726065374013
