16
Source-derived Cartesian centres and explicit atoms
X 0.26247427569099269 1.9409952344880705 -0.21957078727262994
X 0.26247427569099269 1.9409952344880705 -0.21957078727262994
X 0.26247427569099269 1.9409952344880705 -0.21957078727262994
X 0.26247427569099269 1.9409952344880705 -0.21957078727262994
X -1.9295760870136642 -0.068743308255923882 -0.11625823115381477
X -1.9295760870136642 -0.068743308255923882 -0.11625823115381477
X -1.9295760870136642 -0.068743308255923882 -0.11625823115381477
X 0.26247427569099269 1.9409952344880705 -0.21957078727262994
X 0.26247427569099269 1.9409952344880705 -0.21957078727262994
X 0.26247427569099269 1.9409952344880705 -0.21957078727262994
X 0.26247427569099269 1.9409952344880705 -0.21957078727262994
X -1.9295760870136642 -0.068743308255923882 -0.11625823115381477
X -1.9295760870136642 -0.068743308255923882 -0.11625823115381477
X -1.9295760870136642 -0.068743308255923882 -0.11625823115381477
In 0.26247427569099269 1.9409952344880705 -0.21957078727262994
As -1.9295760870136642 -0.068743308255923882 -0.11625823115381477
