10
Source-derived Cartesian centres and explicit atoms
X -0.70999095798725109 1.6203631612915752 0.13484379552459094
X 0.45407653825752153 0.3673756011317047 0.54777654929060227
X -0.23548641387540967 1.5225065215361702 1.3569665438854126
X -0.79749331990452843 0.23350268698948348 0.29948590777130862
X 1.2012660925198986 -1.753180351116518 2.3524156368372044
X 0.037191479782798569 -0.50016725081919544 1.9394702686517153
X 0.7267673808457048 -1.6552902624261341 1.1302842781883438
X 1.2887537464714089 -0.36628231131949984 2.1877530594648986
Si -0.3222010534942778 0.9359256252574687 0.58480314931401312
Si 0.81351579300706001 -1.0687441482794977 1.9025140820302415
