16
Source-derived Cartesian centres and explicit atoms
X 0.86731646936944573 2.5224133934701434 3.3685460041333219
X 0.86731646936944573 2.5224133934701434 3.3685460041333219
X 0.86731646936944573 2.5224133934701434 3.3685460041333219
X 0.86731646936944573 2.5224133934701434 3.3685460041333219
X 0.7723002550014324 0.70400808084320321 0.6213049889265011
X 0.7723002550014324 0.70400808084320321 0.6213049889265011
X 0.7723002550014324 0.70400808084320321 0.6213049889265011
X 0.86731646936944573 2.5224133934701434 3.3685460041333219
X 0.86731646936944573 2.5224133934701434 3.3685460041333219
X 0.86731646936944573 2.5224133934701434 3.3685460041333219
X 0.86731646936944573 2.5224133934701434 3.3685460041333219
X 0.7723002550014324 0.70400808084320321 0.6213049889265011
X 0.7723002550014324 0.70400808084320321 0.6213049889265011
X 0.7723002550014324 0.70400808084320321 0.6213049889265011
As 0.7723002550014324 0.70400808084320321 0.6213049889265011
In 0.86731646936944573 2.5224133934701434 3.3685460041333219
